(set-info :smt-lib-version 2.6)
(set-logic QF_SLIA)
(set-info :source |
Generated by: Hung-En Wang, Shih-Yu Chen, Fang Yu, and Jie-Hong R. Jiang
Generated on: 2019-02-28
Generator: modified from Kaluza benchmarks
Application: Security analysis of string manipulating web applications with string length constraints
Target solver: ABC, CVC4, Norn, S3P, Trau, Z3-str3
Publication:
Hung-En Wang, Shih-Yu Chen, Fang Yu, Jie-Hong R. Jiang:
A symbolic model checking approach to the analysis of string and length constraints. ASE 2018: 623-633
|)
(set-info :license "https://creativecommons.org/licenses/by/4.0/")
(set-info :category "industrial")
(set-info :status unknown)

(declare-fun T_80 () Bool)
(declare-fun T_81 () Bool)
(declare-fun T_SELECT_12 () Bool)
(declare-fun I0_192 () Int)
(declare-fun I0_196 () Int)
(declare-fun I1_192 () Int)
(declare-fun I1_196 () Int)
(declare-fun I2_192 () Int)
(declare-fun I2_196 () Int)
(declare-fun PCTEMP_LHS_50 () Int)
(declare-fun T_85 () Int)
(declare-fun NEW_DGNode_1475 () String)
(declare-fun NEW_DGNode_1476 () String)
(declare-fun NEW_DGNode_1562 () String)
(declare-fun NEW_DGNode_1563 () String)
(declare-fun NEW_DGNode_447 () String)
(declare-fun NEW_DGNode_448 () String)
(declare-fun PCTEMP_LHS_51 () String)
(declare-fun PCTEMP_LHS_54 () String)
(declare-fun T1_192 () String)
(declare-fun T1_196 () String)
(declare-fun T2_192 () String)
(declare-fun T2_196 () String)
(declare-fun T3_192 () String)
(declare-fun T3_196 () String)
(declare-fun T_84 () String)
(assert (= T_84 NEW_DGNode_1476))
(assert (= NEW_DGNode_1476 NEW_DGNode_1475))
(assert (= NEW_DGNode_1476 NEW_DGNode_447))
(assert (= NEW_DGNode_447 NEW_DGNode_448))
(assert (= NEW_DGNode_447 (str.++ T1_192 T2_192)))
(assert (= T2_192 (str.++ PCTEMP_LHS_51 T3_192)))
(assert (= NEW_DGNode_448 (str.++ T1_196 T2_196)))
(assert (= T2_196 (str.++ PCTEMP_LHS_54 T3_196)))
(assert (= PCTEMP_LHS_54 NEW_DGNode_1563))
(assert (= NEW_DGNode_1563 NEW_DGNode_1562))
(assert (not (str.in_re NEW_DGNode_1563 (str.to_re "+"))))
(assert (not (str.in_re NEW_DGNode_1562 (str.to_re "%"))))
(assert (not (str.in_re NEW_DGNode_1475 (str.to_re "&"))))
(assert (= T_SELECT_12 (not (= PCTEMP_LHS_50 (- 1)))))
(assert T_81)
(assert (= T_81 (not T_80)))
(assert (= T_80 (= PCTEMP_LHS_50 (- 1))))
(assert (= I0_192 (- PCTEMP_LHS_50 0)))
(assert (>= PCTEMP_LHS_50 0))
(assert (>= I2_196 T_85))
(assert (= I2_196 I1_196))
(assert (<= I2_196 I1_196))
(assert (= I0_196 (- I2_196 T_85)))
(assert (>= T_85 0))
(assert (= T_85 (+ PCTEMP_LHS_50 1)))
(assert (<= PCTEMP_LHS_50 I1_192))
(assert (= I2_192 I1_192))
(assert (= I1_192 (str.len T_84))) ; len 0
(assert (= I1_196 (str.len T_84))) ; len 0
(assert (= 0 (str.len T1_192))) ; len 1
(assert (= I0_192 (str.len PCTEMP_LHS_51))) ; len 2
(assert (= T_85 (str.len T1_196))) ; len 3
(assert (= I0_196 (str.len PCTEMP_LHS_54))) ; len 4
(check-sat)
(exit)
